181
300
240	1
239	5
238	6
237	9
236	3
235	3
234	6
233	2
232	3
231	3
230	3
229	1
228	4
227	5
226	5
225	5
224	4
223	4
222	4
221	2
220	2
219	8
218	5
217	3
216	3
215	2
214	4
213	4
212	5
211	4
210	3
209	4
208	4
207	6
206	3
205	4
204	1
203	4
202	4
201	8
200	4
199	1
198	5
197	3
196	3
195	2
194	8
193	5
192	2
191	4
190	3
189	6
188	2
187	3
186	5
185	4
184	5
183	3
182	7
181	7
180	5
179	4
178	4
177	8
176	3
175	4
174	7
173	2
172	2
171	9
170	4
169	3
168	3
167	3
166	4
165	6
164	4
163	6
162	4
161	8
160	3
159	2
158	1
157	6
156	1
155	2
154	3
153	5
152	2
151	7
150	4
149	9
148	4
147	3
146	3
145	4
144	8
143	2
142	2
141	4
140	3
139	5
138	3
137	5
136	3
135	2
134	1
133	4
132	1
131	3
130	1
129	2
128	5
127	2
126	3
125	7
124	4
123	5
122	1
121	4
120	5
119	7
118	5
117	3
116	5
115	6
114	6
113	6
112	1
111	5
110	4
109	3
108	3
107	7
106	7
105	1
104	3
103	6
102	4
101	4
100	3
99	4
98	5
97	9
96	3
95	3
94	4
93	4
92	3
91	6
90	1
89	7
88	2
87	6
86	4
85	1
84	4
83	5
82	7
81	8
80	6
79	5
78	6
77	7
76	8
75	4
74	6
73	4
72	3
71	3
70	2
69	3
68	3
67	2
66	1
65	4
64	6
63	5
62	5
61	11
60	3
